objective value:                                   -4
t_n_16                                              1 	(obj:-1)
t_n_784                                             1 	(obj:-1)
t_n_1025                                            1 	(obj:-1)
t_n_1684                                            1 	(obj:-1)
